NAME: test1946
TYPE: TSP
DIMENSION: 11
EDGE_WEIGHT_TYPE: EUC_2D
NODE_COORD_SECTION
1 25.73039614259418 52.09431932104551
2 68.05770539036938 59.08354535671791
3 67.43623549146996 15.08894313319865
4 43.81188212703052 76.23176225359799
5 45.80027658030248 1.5825998584570788
6 20.23636959231745 43.624778454316036
7 64.90222187797256 95.54878477089184
8 29.536191417361646 21.6980502877833
9 52.84649582970506 40.296867327803774
10 92.69615432025937 90.87516755876752
11 51.82038485997168 94.5154912181346
EOF
